proyfinal/src/viki/013/andrea/andrea-localstore/experimentInOfficeAgust.take6/worker_11/ec18b82b-7e85-4959-b219-c25b0141ef6d.als.cnf.out
Reading from standard input... Use '--help' for help.
============================[ Problem Statistics ]=============================
|                                                                             |
|  Number of variables:         87638                                         |
|  Number of clauses:          161767                                         |
|  Parse time:                   0.04 s                                       |
|                                                                             |
============================[ Search Statistics ]==============================
| Conflicts |          ORIGINAL         |          LEARNT          | Progress |
|           |    Vars  Clauses Literals |    Limit  Clauses Lit/Cl |          |
===============================================================================
|       100 |   63830   110364   275805 |    40466      100     24 | 27.166 % |
|       250 |   63754   110048   275082 |    44513      247     40 | 27.253 % |
|       475 |   63723   109926   274788 |    48964      471     65 | 27.288 % |
|       812 |   63723   109926   274788 |    53861      808     53 | 27.289 % |
|      1318 |   63631   109554   273896 |    59247     1304     80 | 27.393 % |
|      2077 |   63630   109510   273806 |    65172     2060     84 | 27.395 % |
|      3216 |   63630   109510   273806 |    71689     3199     88 | 27.395 % |
|      4924 |   63630   109510   273806 |    78858     4907     86 | 27.395 % |
|      7486 |   63630   109510   273806 |    86744     7469     83 | 27.395 % |
|     11330 |   63586   109293   273323 |    95418     9786     82 | 27.445 % |
===============================================================================
restarts              : 62
conflicts             : 15250          (6340 /sec)
decisions             : 58605          (0.00 % random) (24363 /sec)
propagations          : 24729901       (10280750 /sec)
conflict literals     : 1301531        (52.97 % deleted)
Memory used           : 28.57 MB
CPU time              : 2.40546 s

INDETERMINATE
